Route #1: 26 7 35 8 52 34 46
Route #2: 27 13 54 19 59 14
Route #3: 53 11 38 10 58
Route #4: 39 31 55 25 50 18 24 49
Route #5: 23 56 41 42 64 22 61
Route #6: 28 62 1 43 63 16
Route #7: 4 45 29 57 15 5 30
Route #8: 21 47 36 60 20 37 48
Route #9: 6 2 33 51 17 12
Route #10: 40 9 32 44 3
Cost 846